p = 25;
s = 12;
b = 6;
c = 10;
t = 5;
g = 7;
graph = [| 0,0,0,1,0,1,0,0,1,0,1,0
	| 1,0,0,0,1,1,0,0,0,1,1,1
	| 1,1,1,0,1,1,0,1,1,0,1,1
	| 0,1,1,0,0,1,1,0,1,1,0,1
	| 1,1,1,1,1,0,0,0,1,0,1,1
	| 1,0,1,0,0,1,0,0,1,1,0,1
	| 0,0,1,1,0,0,1,1,1,0,0,1
	| 0,0,0,0,1,0,1,0,0,1,0,1
	| 0,1,0,0,0,0,0,1,1,1,0,0
	| 1,0,1,1,1,1,1,0,0,0,0,1
	| 0,1,1,1,0,0,1,0,1,0,0,0
	| 1,0,0,0,1,0,0,0,0,1,0,0
	| 0,1,0,0,0,1,0,1,1,1,1,0
	| 1,1,1,1,0,0,0,0,1,1,0,1
	| 1,0,0,1,0,0,0,1,1,1,1,1
	| 0,0,1,0,1,0,1,0,1,1,1,1
	| 1,0,1,0,0,1,1,1,0,1,0,1
	| 0,0,0,0,1,1,0,1,1,0,0,1
	| 0,1,1,1,0,0,0,0,0,1,0,0
	| 1,0,0,1,0,0,1,0,0,1,0,1
	| 1,0,1,1,0,0,0,0,1,1,0,0
	| 1,0,1,1,1,1,1,1,1,1,1,0
	| 0,1,0,0,1,1,1,1,1,0,0,1
	| 0,0,1,0,0,1,0,0,0,1,1,0
	| 0,0,1,0,0,1,1,1,1,1,1,1
	|];
groups = [
	{24,4,25,14},{3,7,12,23},{13,8,1},{6,21,17,9},{19,15,16,10},{2,18,5},{11,20,22}
]